%%% static parameters %%%
timespan = 1;
Clients_N = [4000];
Demand_W = [15];
Lt0 = [4];
Lt1 = [4];
SS_ = [0.85];
DS_D = [20];
K = [200];
MA = [500];
HC = [0.05];
%%% dynamic parameters %%%
lost_ratio_sales_ret_th = 0.0008333469544888162;
lost_ratio_sales_ret_w = 49;
lost_ratio_sales_dis_th = 1.0884675608345162e-05;
lost_ratio_sales_dis_w = 82;
lost_ratio_sales_fac_th = 0.0009196516882491095;
lost_ratio_sales_fac_w = 22;
stock_customer_MA_mean_relative_th = 0.3086001960122401;
stock_customer_MA_mean_relative_w = 53;
stock_distributor_MA_mean_relative_th = 0.6110570449740353;
stock_distributor_MA_mean_relative_w = 90;
stock_retailer_MA_mean_relative_th = 0.2563228760592522;
stock_retailer_MA_mean_relative_w = 28;
stock_factory_MA_mean_relative_th = 0.6624273648917982;
stock_factory_MA_mean_relative_w = 6;
